p cnf 367 513
1 2 5 6 7 8 10 11 13 14 17 0
18 19 20 23 24 25 29 30 34 0
36 37 38 41 43 47 48 50 0
52 53 54 55 63 64 65 66 0
69 71 73 75 77 79 82 83 0
87 88 90 91 92 93 97 99 100 102 0
103 106 108 109 112 116 117 118 119 0
120 123 124 125 127 130 131 132 133 136 0
137 138 141 144 145 146 148 149 0
154 156 158 163 165 166 167 170 0
172 173 174 178 179 181 183 0
189 193 197 198 199 201 0
207 208 213 217 218 219 220 0
222 223 224 228 232 234 235 237 0
240 241 242 243 245 246 250 251 253 254 255 0
256 262 267 270 271 0
273 274 275 277 279 280 285 288 289 0
290 291 292 295 296 298 299 301 303 304 305 0
-1 -18 0
-1 -52 0
-1 -69 0
-1 -103 0
-1 -120 0
-1 -137 0
-1 -154 0
-1 -222 0
-1 -256 0
-1 -273 0
-1 -290 0
-18 -52 0
-18 -69 0
-18 -103 0
-18 -120 0
-18 -137 0
-18 -154 0
-18 -222 0
-18 -256 0
-18 -273 0
-18 -290 0
-52 -69 0
-52 -103 0
-52 -120 0
-52 -137 0
-52 -154 0
-52 -222 0
-52 -256 0
-52 -273 0
-52 -290 0
-69 -103 0
-69 -120 0
-69 -137 0
-69 -154 0
-69 -222 0
-69 -256 0
-69 -273 0
-69 -290 0
-103 -120 0
-103 -137 0
-103 -154 0
-103 -222 0
-103 -256 0
-103 -273 0
-103 -290 0
-120 -137 0
-120 -154 0
-120 -222 0
-120 -256 0
-120 -273 0
-120 -290 0
-137 -154 0
-137 -222 0
-137 -256 0
-137 -273 0
-137 -290 0
-154 -222 0
-154 -256 0
-154 -273 0
-154 -290 0
-222 -256 0
-222 -273 0
-222 -290 0
-256 -273 0
-256 -290 0
-273 -290 0
-2 -19 0
-2 -36 0
-2 -53 0
-2 -87 0
-2 -138 0
-2 -172 0
-2 -189 0
-2 -223 0
-2 -240 0
-2 -274 0
-2 -291 0
-19 -36 0
-19 -53 0
-19 -87 0
-19 -138 0
-19 -172 0
-19 -189 0
-19 -223 0
-19 -240 0
-19 -274 0
-19 -291 0
-36 -53 0
-36 -87 0
-36 -138 0
-36 -172 0
-36 -189 0
-36 -223 0
-36 -240 0
-36 -274 0
-36 -291 0
-53 -87 0
-53 -138 0
-53 -172 0
-53 -189 0
-53 -223 0
-53 -240 0
-53 -274 0
-53 -291 0
-87 -138 0
-87 -172 0
-87 -189 0
-87 -223 0
-87 -240 0
-87 -274 0
-87 -291 0
-138 -172 0
-138 -189 0
-138 -223 0
-138 -240 0
-138 -274 0
-138 -291 0
-172 -189 0
-172 -223 0
-172 -240 0
-172 -274 0
-172 -291 0
-189 -223 0
-189 -240 0
-189 -274 0
-189 -291 0
-223 -240 0
-223 -274 0
-223 -291 0
-240 -274 0
-240 -291 0
-274 -291 0
-20 -37 0
-20 -54 0
-20 -307 0
-37 -54 0
-37 -307 0
-54 -307 0
307 -71 0
307 -88 0
307 -308 0
-71 -88 0
-71 -308 0
-88 -308 0
308 -156 0
308 -173 0
308 -309 0
-156 -173 0
-156 -309 0
-173 -309 0
309 -207 0
309 -224 0
309 -310 0
-207 -224 0
-207 -310 0
-224 -310 0
310 -241 0
310 -275 0
310 -292 0
-241 -275 0
-241 -292 0
-275 -292 0
-38 311 0
-55 312 0
-55 -311 0
-311 312 0
-106 313 0
-106 -312 0
-312 313 0
-123 314 0
-123 -313 0
-313 314 0
-174 315 0
-174 -314 0
-314 315 0
-208 316 0
-208 -315 0
-315 316 0
-242 -316 0
-5 317 0
-73 318 0
-73 -317 0
-317 318 0
-90 319 0
-90 -318 0
-318 319 0
-124 320 0
-124 -319 0
-319 320 0
-141 321 0
-141 -320 0
-320 321 0
-158 322 0
-158 -321 0
-321 322 0
-243 323 0
-243 -322 0
-322 323 0
-277 -323 0
-6 -23 0
-6 -91 0
-6 -108 0
-6 -125 0
-6 -193 0
-6 -295 0
-23 -91 0
-23 -108 0
-23 -125 0
-23 -193 0
-23 -295 0
-91 -108 0
-91 -125 0
-91 -193 0
-91 -295 0
-108 -125 0
-108 -193 0
-108 -295 0
-125 -193 0
-125 -295 0
-193 -295 0
-7 324 0
-24 325 0
-24 -324 0
-324 325 0
-41 326 0
-41 -325 0
-325 326 0
-75 327 0
-75 -326 0
-326 327 0
-92 328 0
-92 -327 0
-327 328 0
-109 329 0
-109 -328 0
-328 329 0
-228 330 0
-228 -329 0
-329 330 0
-245 331 0
-245 -330 0
-330 331 0
-262 332 0
-262 -331 0
-331 332 0
-279 333 0
-279 -332 0
-332 333 0
-296 -333 0
-8 334 0
-25 335 0
-25 -334 0
-334 335 0
-93 336 0
-93 -335 0
-335 336 0
-127 337 0
-127 -336 0
-336 337 0
-144 338 0
-144 -337 0
-337 338 0
-178 339 0
-178 -338 0
-338 339 0
-246 340 0
-246 -339 0
-339 340 0
-280 -340 0
-43 -77 0
-43 -145 0
-43 -341 0
-77 -145 0
-77 -341 0
-145 -341 0
341 -179 0
341 -213 0
341 -298 0
-179 -213 0
-179 -298 0
-213 -298 0
-10 342 0
-112 343 0
-112 -342 0
-342 343 0
-146 344 0
-146 -343 0
-343 344 0
-163 345 0
-163 -344 0
-344 345 0
-197 346 0
-197 -345 0
-345 346 0
-299 -346 0
-11 347 0
-79 348 0
-79 -347 0
-347 348 0
-130 349 0
-130 -348 0
-348 349 0
-181 350 0
-181 -349 0
-349 350 0
-198 351 0
-198 -350 0
-350 351 0
-232 -351 0
-29 -63 0
-29 -97 0
-29 -352 0
-63 -97 0
-63 -352 0
-97 -352 0
352 -131 0
352 -148 0
352 -353 0
-131 -148 0
-131 -353 0
-148 -353 0
353 -165 0
353 -199 0
353 -354 0
-165 -199 0
-165 -354 0
-199 -354 0
354 -250 0
354 -267 0
354 -301 0
-250 -267 0
-250 -301 0
-267 -301 0
-13 -30 0
-13 -47 0
-13 -355 0
-30 -47 0
-30 -355 0
-47 -355 0
355 -64 0
355 -132 0
355 -356 0
-64 -132 0
-64 -356 0
-132 -356 0
356 -149 0
356 -166 0
356 -357 0
-149 -166 0
-149 -357 0
-166 -357 0
357 -183 0
357 -217 0
357 -358 0
-183 -217 0
-183 -358 0
-217 -358 0
358 -234 0
358 -251 0
358 -285 0
-234 -251 0
-234 -285 0
-251 -285 0
-14 -48 0
-14 -65 0
-14 -82 0
-14 -99 0
-14 -116 0
-14 -133 0
-14 -167 0
-14 -201 0
-14 -218 0
-14 -235 0
-14 -303 0
-48 -65 0
-48 -82 0
-48 -99 0
-48 -116 0
-48 -133 0
-48 -167 0
-48 -201 0
-48 -218 0
-48 -235 0
-48 -303 0
-65 -82 0
-65 -99 0
-65 -116 0
-65 -133 0
-65 -167 0
-65 -201 0
-65 -218 0
-65 -235 0
-65 -303 0
-82 -99 0
-82 -116 0
-82 -133 0
-82 -167 0
-82 -201 0
-82 -218 0
-82 -235 0
-82 -303 0
-99 -116 0
-99 -133 0
-99 -167 0
-99 -201 0
-99 -218 0
-99 -235 0
-99 -303 0
-116 -133 0
-116 -167 0
-116 -201 0
-116 -218 0
-116 -235 0
-116 -303 0
-133 -167 0
-133 -201 0
-133 -218 0
-133 -235 0
-133 -303 0
-167 -201 0
-167 -218 0
-167 -235 0
-167 -303 0
-201 -218 0
-201 -235 0
-201 -303 0
-218 -235 0
-218 -303 0
-235 -303 0
-66 -83 0
-66 -100 0
-66 -117 0
-66 -219 0
-66 -253 0
-66 -270 0
-66 -304 0
-83 -100 0
-83 -117 0
-83 -219 0
-83 -253 0
-83 -270 0
-83 -304 0
-100 -117 0
-100 -219 0
-100 -253 0
-100 -270 0
-100 -304 0
-117 -219 0
-117 -253 0
-117 -270 0
-117 -304 0
-219 -253 0
-219 -270 0
-219 -304 0
-253 -270 0
-253 -304 0
-270 -304 0
-50 359 0
-118 360 0
-118 -359 0
-359 360 0
-220 361 0
-220 -360 0
-360 361 0
-237 362 0
-237 -361 0
-361 362 0
-254 363 0
-254 -362 0
-362 363 0
-271 364 0
-271 -363 0
-363 364 0
-288 365 0
-288 -364 0
-364 365 0
-305 -365 0
-17 -34 0
-17 -102 0
-17 -366 0
-34 -102 0
-34 -366 0
-102 -366 0
366 -119 0
366 -136 0
366 -367 0
-119 -136 0
-119 -367 0
-136 -367 0
367 -170 0
367 -255 0
367 -289 0
-170 -255 0
-170 -289 0
-255 -289 0
